c description: Random 3-CNF over 19 variables and 81 clauses
c generator: CNFgen (0.9.2)
c copyright: (C) 2012-2022 Massimo Lauria <massimo.lauria@uniroma1.it>
c url: https://massimolauria.net/cnfgen
c command line: cnfgen --output CNF_4.28/19_bit_81_995.cnf randkcnf 3 19 81
c
p cnf 19 81
-6 18 19 0
5 -16 19 0
-2 8 -19 0
6 -10 15 0
2 6 -15 0
-2 3 7 0
-4 -9 12 0
1 -5 -10 0
-4 -7 -9 0
7 11 18 0
-1 7 -13 0
-12 -14 -18 0
-1 5 -7 0
-3 6 -9 0
-1 10 13 0
8 -13 19 0
4 15 -16 0
6 9 13 0
5 9 -17 0
1 4 13 0
3 11 14 0
-3 8 16 0
7 -9 10 0
3 4 -13 0
6 -17 -19 0
-3 -6 19 0
-3 11 -19 0
-13 14 18 0
-4 -15 18 0
7 -9 -10 0
2 10 13 0
-6 -8 11 0
6 7 10 0
-3 -6 -13 0
14 -17 19 0
-1 -6 -11 0
5 15 17 0
4 8 11 0
7 9 10 0
-6 -14 19 0
3 -8 -13 0
2 5 13 0
-6 10 -12 0
-6 10 16 0
-5 14 -19 0
-3 -4 -9 0
-12 17 -18 0
2 14 -19 0
-7 16 -18 0
2 5 12 0
13 -15 18 0
-7 -11 -13 0
4 -9 13 0
8 -12 -14 0
-4 -7 -15 0
-10 -17 19 0
6 8 -11 0
2 9 16 0
5 10 11 0
2 3 -18 0
-5 -8 -17 0
-2 3 11 0
2 -12 13 0
-7 -8 -11 0
-1 6 -9 0
-3 12 -19 0
-12 14 -15 0
1 5 13 0
14 15 17 0
-6 -7 16 0
4 6 10 0
-7 -10 -16 0
5 6 -10 0
-2 -12 -18 0
11 12 -16 0
-5 7 11 0
1 -16 18 0
10 -15 19 0
4 -15 19 0
-5 -15 16 0
10 11 13 0
